(set-info :smt-lib-version 2.6)
(set-info :category "crafted")
(set-logic QF_FF)
(define-sort FF0 () (_ FiniteField 52435875175126190479447740508185965837690552500527637822603658699938581184513))
(declare-fun x19 () Bool)
(declare-fun x18 () Bool)
(declare-fun x17 () Bool)
(declare-fun x16 () Bool)
(declare-fun x15 () Bool)
(declare-fun x14 () Bool)
(declare-fun x13 () Bool)
(declare-fun x12 () Bool)
(declare-fun x11 () Bool)
(declare-fun x10 () Bool)
(declare-fun x9 () Bool)
(declare-fun x8 () Bool)
(declare-fun x7 () Bool)
(declare-fun x6 () Bool)
(declare-fun x5 () Bool)
(declare-fun x4 () Bool)
(declare-fun x3 () Bool)
(declare-fun x2 () Bool)
(declare-fun x1 () Bool)
(declare-fun x0 () Bool)
(declare-fun return_n18 () FF0)
(declare-fun x19_n16 () FF0)
(declare-fun mul_n38 () FF0)
(declare-fun x18_n20 () FF0)
(declare-fun mul_n37 () FF0)
(declare-fun x17_n11 () FF0)
(declare-fun mul_n36 () FF0)
(declare-fun x16_n3 () FF0)
(declare-fun mul_n35 () FF0)
(declare-fun x15_n15 () FF0)
(declare-fun mul_n34 () FF0)
(declare-fun x14_n6 () FF0)
(declare-fun mul_n33 () FF0)
(declare-fun x13_n8 () FF0)
(declare-fun mul_n32 () FF0)
(declare-fun x12_n0 () FF0)
(declare-fun mul_n31 () FF0)
(declare-fun x11_n12 () FF0)
(declare-fun mul_n30 () FF0)
(declare-fun mul_n29 () FF0)
(declare-fun x9_n9 () FF0)
(declare-fun mul_n28 () FF0)
(declare-fun x8_n1 () FF0)
(declare-fun mul_n27 () FF0)
(declare-fun x7_n14 () FF0)
(declare-fun mul_n26 () FF0)
(declare-fun x6_n17 () FF0)
(declare-fun mul_n25 () FF0)
(declare-fun x5_n10 () FF0)
(declare-fun mul_n24 () FF0)
(declare-fun x4_n2 () FF0)
(declare-fun mul_n23 () FF0)
(declare-fun x3_n7 () FF0)
(declare-fun mul_n22 () FF0)
(declare-fun x2_n19 () FF0)
(declare-fun mul_n21 () FF0)
(declare-fun x1_n13 () FF0)
(declare-fun x0_n5 () FF0)
(declare-fun x10_n4 () FF0)
(assert 
  (let ((let0 x19))
  (let ((let1 x18))
  (let ((let2 x17))
  (let ((let3 x16))
  (let ((let4 x15))
  (let ((let5 x14))
  (let ((let6 x13))
  (let ((let7 x12))
  (let ((let8 x11))
  (let ((let9 x10))
  (let ((let10 x9))
  (let ((let11 x8))
  (let ((let12 x7))
  (let ((let13 x6))
  (let ((let14 x5))
  (let ((let15 x4))
  (let ((let16 x3))
  (let ((let17 x2))
  (let ((let18 x1))
  (let ((let19 x0))
  (let ((let20 (or let19 let18 let17 let16 let15 let14 let13 let12 let11 let10 let9 let8 let7 let6 let5 let4 let3 let2 let1 let0)))
  (let ((let21 return_n18))
  (let ((let22 (as ff1 FF0)))
  (let ((let23 (= let22 let21)))
  (let ((let24 (= let23 let20)))
  (let ((let25 (as ff0 FF0)))
  (let ((let26 (= let25 let21)))
  (let ((let27 (or let23 let26)))
  (let ((let28 (and let27 let24)))
  (let ((let29 (as ff52435875175126190479447740508185965837690552500527637822603658699938581184512 FF0)))
  (let ((let30 (ff.mul let21 let29)))
  (let ((let31 (ff.add let30 let22)))
  (let ((let32 x19_n16))
  (let ((let33 (ff.mul let32 let29)))
  (let ((let34 (ff.add let33 let22)))
  (let ((let35 mul_n38))
  (let ((let36 (ff.mul let35 let34)))
  (let ((let37 (= let36 let31)))
  (let ((let38 x18_n20))
  (let ((let39 (ff.mul let38 let29)))
  (let ((let40 (ff.add let39 let22)))
  (let ((let41 mul_n37))
  (let ((let42 (ff.mul let41 let40)))
  (let ((let43 (= let42 let35)))
  (let ((let44 x17_n11))
  (let ((let45 (ff.mul let44 let29)))
  (let ((let46 (ff.add let45 let22)))
  (let ((let47 mul_n36))
  (let ((let48 (ff.mul let47 let46)))
  (let ((let49 (= let48 let41)))
  (let ((let50 x16_n3))
  (let ((let51 (ff.mul let50 let29)))
  (let ((let52 (ff.add let51 let22)))
  (let ((let53 mul_n35))
  (let ((let54 (ff.mul let53 let52)))
  (let ((let55 (= let54 let47)))
  (let ((let56 x15_n15))
  (let ((let57 (ff.mul let56 let29)))
  (let ((let58 (ff.add let57 let22)))
  (let ((let59 mul_n34))
  (let ((let60 (ff.mul let59 let58)))
  (let ((let61 (= let60 let53)))
  (let ((let62 x14_n6))
  (let ((let63 (ff.mul let62 let29)))
  (let ((let64 (ff.add let63 let22)))
  (let ((let65 mul_n33))
  (let ((let66 (ff.mul let65 let64)))
  (let ((let67 (= let66 let59)))
  (let ((let68 x13_n8))
  (let ((let69 (ff.mul let68 let29)))
  (let ((let70 (ff.add let69 let22)))
  (let ((let71 mul_n32))
  (let ((let72 (ff.mul let71 let70)))
  (let ((let73 (= let72 let65)))
  (let ((let74 x12_n0))
  (let ((let75 (ff.mul let74 let29)))
  (let ((let76 (ff.add let75 let22)))
  (let ((let77 mul_n31))
  (let ((let78 (ff.mul let77 let76)))
  (let ((let79 (= let78 let71)))
  (let ((let80 x11_n12))
  (let ((let81 (ff.mul let80 let29)))
  (let ((let82 (ff.add let81 let22)))
  (let ((let83 mul_n30))
  (let ((let84 (ff.mul let83 let82)))
  (let ((let85 (= let84 let77)))
  (let ((let86 mul_n29))
  (let ((let87 x9_n9))
  (let ((let88 (ff.mul let87 let29)))
  (let ((let89 (ff.add let88 let22)))
  (let ((let90 mul_n28))
  (let ((let91 (ff.mul let90 let89)))
  (let ((let92 (= let91 let86)))
  (let ((let93 x8_n1))
  (let ((let94 (ff.mul let93 let29)))
  (let ((let95 (ff.add let94 let22)))
  (let ((let96 mul_n27))
  (let ((let97 (ff.mul let96 let95)))
  (let ((let98 (= let97 let90)))
  (let ((let99 x7_n14))
  (let ((let100 (ff.mul let99 let29)))
  (let ((let101 (ff.add let100 let22)))
  (let ((let102 mul_n26))
  (let ((let103 (ff.mul let102 let101)))
  (let ((let104 (= let103 let96)))
  (let ((let105 x6_n17))
  (let ((let106 (ff.mul let105 let29)))
  (let ((let107 (ff.add let106 let22)))
  (let ((let108 mul_n25))
  (let ((let109 (ff.mul let108 let107)))
  (let ((let110 (= let109 let102)))
  (let ((let111 x5_n10))
  (let ((let112 (ff.mul let111 let29)))
  (let ((let113 (ff.add let112 let22)))
  (let ((let114 mul_n24))
  (let ((let115 (ff.mul let114 let113)))
  (let ((let116 (= let115 let108)))
  (let ((let117 x4_n2))
  (let ((let118 (ff.mul let117 let29)))
  (let ((let119 (ff.add let118 let22)))
  (let ((let120 mul_n23))
  (let ((let121 (ff.mul let120 let119)))
  (let ((let122 (= let121 let114)))
  (let ((let123 x3_n7))
  (let ((let124 (ff.mul let123 let29)))
  (let ((let125 (ff.add let124 let22)))
  (let ((let126 mul_n22))
  (let ((let127 (ff.mul let126 let125)))
  (let ((let128 (= let127 let120)))
  (let ((let129 x2_n19))
  (let ((let130 (ff.mul let129 let29)))
  (let ((let131 (ff.add let130 let22)))
  (let ((let132 mul_n21))
  (let ((let133 (ff.mul let132 let131)))
  (let ((let134 (= let133 let126)))
  (let ((let135 x1_n13))
  (let ((let136 (ff.mul let135 let29)))
  (let ((let137 (ff.add let136 let22)))
  (let ((let138 x0_n5))
  (let ((let139 (ff.mul let138 let29)))
  (let ((let140 (ff.add let139 let22)))
  (let ((let141 (ff.mul let140 let137)))
  (let ((let142 (= let141 let132)))
  (let ((let143 (and let142 let134 let128 let122 let116 let110 let104 let98 let92 let85 let79 let73 let67 let61 let55 let49 let43 let37)))
  (let ((let144 (ite let9 let22 let25)))
  (let ((let145 x10_n4))
  (let ((let146 (= let145 let144)))
  (let ((let147 (ite let3 let22 let25)))
  (let ((let148 (= let50 let147)))
  (let ((let149 (ite let5 let22 let25)))
  (let ((let150 (= let62 let149)))
  (let ((let151 (ite let17 let22 let25)))
  (let ((let152 (= let129 let151)))
  (let ((let153 (ite let0 let22 let25)))
  (let ((let154 (= let32 let153)))
  (let ((let155 (ite let10 let22 let25)))
  (let ((let156 (= let87 let155)))
  (let ((let157 (ite let4 let22 let25)))
  (let ((let158 (= let56 let157)))
  (let ((let159 (ite let19 let22 let25)))
  (let ((let160 (= let138 let159)))
  (let ((let161 (ite let13 let22 let25)))
  (let ((let162 (= let105 let161)))
  (let ((let163 (ite let18 let22 let25)))
  (let ((let164 (= let135 let163)))
  (let ((let165 (ite let2 let22 let25)))
  (let ((let166 (= let44 let165)))
  (let ((let167 (ite let16 let22 let25)))
  (let ((let168 (= let123 let167)))
  (let ((let169 (ite let11 let22 let25)))
  (let ((let170 (= let93 let169)))
  (let ((let171 (ite let8 let22 let25)))
  (let ((let172 (= let80 let171)))
  (let ((let173 (ite let14 let22 let25)))
  (let ((let174 (= let111 let173)))
  (let ((let175 (ite let7 let22 let25)))
  (let ((let176 (= let74 let175)))
  (let ((let177 (ite let6 let22 let25)))
  (let ((let178 (= let68 let177)))
  (let ((let179 (ite let12 let22 let25)))
  (let ((let180 (= let99 let179)))
  (let ((let181 (ite let15 let22 let25)))
  (let ((let182 (= let117 let181)))
  (let ((let183 (ite let1 let22 let25)))
  (let ((let184 (= let38 let183)))
  (let ((let185 (and let184 let182 let180 let178 let176 let174 let172 let170 let168 let166 let164 let162 let160 let158 let156 let154 let152 let150 let148 let146)))
  (let ((let186 (and let185 let143)))
  (let ((let187 (=> let186 let28)))
  (let ((let188 (not let187)))
  let188
)))))))))))))))))))))))))))))))))))))))))))))))))))))))))))))))))))))))))))))))))))))))))))))))))))))))))))))))))))))))))))))))))))))))))))))))))))))))))))))))))))))))))))))))))))))))))))))
)
(check-sat)
